c ind 10 108 118 120 122 124 126 128 13 130 0
c ind 132 141 143 145 147 149 151 153 155 196 0
c ind 199 208 210 212 214 216 218 22 220 222 0
c ind 23 231 233 235 237 239 241 243 245 25 0
c ind 27 29 31 33 35 37 5 50 52 54 0
c ind 56 58 6 60 62 64 73 75 77 79 0
c ind 81 83 85 87 9 0
p cnf 245 650
-1 -2 11 0
-1 2 65 0
-100 101 0
-100 59 0
-101 102 0
-101 57 0
-102 103 0
-102 55 0
-103 104 0
-103 53 0
-104 105 0
-104 49 0
-105 -13 52 0
-105 -52 13 0
-106 -107 109 0
-106 107 194 0
-107 -108 13 0
-107 -13 108 0
-109 -110 133 0
-109 110 156 0
-11 -12 14 0
-11 12 38 0
-110 111 0
-110 131 0
-111 112 0
-111 129 0
-112 113 0
-112 127 0
-113 114 0
-113 125 0
-114 115 0
-114 123 0
-115 116 0
-115 121 0
-116 117 0
-116 119 0
-117 -118 23 0
-117 -23 118 0
-119 -120 23 0
-119 -23 120 0
-12 -13 5 0
-12 -5 13 0
-121 -122 23 0
-121 -23 122 0
-123 -124 23 0
-123 -23 124 0
-125 -126 23 0
-125 -23 126 0
-127 -128 23 0
-127 -23 128 0
-129 -130 23 0
-129 -23 130 0
-131 -132 23 0
-131 -23 132 0
-133 134 0
-133 154 0
-134 135 0
-134 152 0
-135 136 0
-135 150 0
-136 137 0
-136 148 0
-137 138 0
-137 146 0
-138 139 0
-138 144 0
-139 140 0
-139 142 0
-14 15 0
-14 36 0
-140 -141 22 0
-140 -22 141 0
-142 -143 25 0
-142 -25 143 0
-144 -145 27 0
-144 -27 145 0
-146 -147 29 0
-146 -29 147 0
-148 -149 31 0
-148 -31 149 0
-15 16 0
-15 34 0
-150 -151 33 0
-150 -33 151 0
-152 -153 35 0
-152 -35 153 0
-154 -155 37 0
-154 -37 155 0
-156 157 0
-156 190 0
-157 158 0
-157 186 0
-158 159 0
-158 182 0
-159 160 0
-159 178 0
-16 17 0
-16 32 0
-160 161 0
-160 174 0
-161 162 0
-161 170 0
-162 163 0
-162 166 0
-163 -164 22 0
-163 -22 164 0
-164 -165 -23 0
-164 165 23 0
-165 -141 -13 0
-165 141 13 0
-166 -167 25 0
-166 -25 167 0
-167 -168 -169 0
-167 168 169 0
-168 -143 -13 0
-168 143 13 0
-169 141 23 0
-17 18 0
-17 30 0
-170 -171 27 0
-170 -27 171 0
-171 -172 -173 0
-171 172 173 0
-172 -145 -13 0
-172 145 13 0
-173 143 169 0
-174 -175 29 0
-174 -29 175 0
-175 -176 -177 0
-175 176 177 0
-176 -147 -13 0
-176 147 13 0
-177 145 173 0
-178 -179 31 0
-178 -31 179 0
-179 -180 -181 0
-179 180 181 0
-18 19 0
-18 28 0
-180 -149 -13 0
-180 149 13 0
-181 147 177 0
-182 -183 33 0
-182 -33 183 0
-183 -184 -185 0
-183 184 185 0
-184 -151 -13 0
-184 151 13 0
-185 149 181 0
-186 -187 35 0
-186 -35 187 0
-187 -188 -189 0
-187 188 189 0
-188 -153 -13 0
-188 153 13 0
-189 151 185 0
-19 20 0
-19 26 0
-190 -191 37 0
-190 -37 191 0
-191 -192 -193 0
-191 192 193 0
-192 -155 -13 0
-192 155 13 0
-193 153 189 0
-194 -195 197 0
-194 195 223 0
-195 -13 196 0
-195 -196 13 0
-197 -198 200 0
-197 198 109 0
-198 -13 199 0
-198 -199 13 0
-2 3 7 0
-20 21 0
-20 24 0
-200 201 0
-200 221 0
-201 202 0
-201 219 0
-202 203 0
-202 217 0
-203 204 0
-203 215 0
-204 205 0
-204 213 0
-205 206 0
-205 211 0
-206 207 0
-206 209 0
-207 -208 22 0
-207 -22 208 0
-209 -210 25 0
-209 -25 210 0
-21 -22 23 0
-21 -23 22 0
-211 -212 27 0
-211 -27 212 0
-213 -214 29 0
-213 -29 214 0
-215 -216 31 0
-215 -31 216 0
-217 -218 33 0
-217 -33 218 0
-219 -220 35 0
-219 -35 220 0
-221 -222 37 0
-221 -37 222 0
-223 224 0
-223 244 0
-224 225 0
-224 242 0
-225 226 0
-225 240 0
-226 227 0
-226 238 0
-227 228 0
-227 236 0
-228 229 0
-228 234 0
-229 230 0
-229 232 0
-23 0
-230 -22 231 0
-230 -231 22 0
-232 -233 25 0
-232 -25 233 0
-234 -235 27 0
-234 -27 235 0
-236 -237 29 0
-236 -29 237 0
-238 -239 31 0
-238 -31 239 0
-24 -23 25 0
-24 -25 23 0
-240 -241 33 0
-240 -33 241 0
-242 -243 35 0
-242 -35 243 0
-244 -245 37 0
-244 -37 245 0
-26 -23 27 0
-26 -27 23 0
-28 -23 29 0
-28 -29 23 0
-3 -4 0
-30 -23 31 0
-30 -31 23 0
-32 -23 33 0
-32 -33 23 0
-34 -23 35 0
-34 -35 23 0
-36 -23 37 0
-36 -37 23 0
-38 -39 41 0
-38 39 65 0
-39 40 0
-39 7 0
-4 -5 6 0
-4 -6 5 0
-40 -13 9 0
-40 -9 13 0
-41 -42 65 0
-41 42 88 0
-42 43 0
-42 63 0
-43 44 0
-43 61 0
-44 45 0
-44 59 0
-45 46 0
-45 57 0
-46 47 0
-46 55 0
-47 48 0
-47 53 0
-48 49 0
-48 51 0
-49 -23 50 0
-49 -50 23 0
-51 -23 52 0
-51 -52 23 0
-53 -23 54 0
-53 -54 23 0
-55 -23 56 0
-55 -56 23 0
-57 -23 58 0
-57 -58 23 0
-59 -23 60 0
-59 -60 23 0
-61 -23 62 0
-61 -62 23 0
-63 -23 64 0
-63 -64 23 0
-65 66 0
-65 86 0
-66 67 0
-66 84 0
-67 68 0
-67 82 0
-68 69 0
-68 80 0
-69 70 0
-69 78 0
-7 -8 0
-70 71 0
-70 76 0
-71 72 0
-71 74 0
-72 -22 73 0
-72 -73 22 0
-74 -25 75 0
-74 -75 25 0
-76 -27 77 0
-76 -77 27 0
-78 -29 79 0
-78 -79 29 0
-8 -10 9 0
-8 -9 10 0
-80 -31 81 0
-80 -81 31 0
-82 -33 83 0
-82 -83 33 0
-84 -35 85 0
-84 -85 35 0
-86 -37 87 0
-86 -87 37 0
-88 -89 14 0
-88 89 97 0
-89 63 0
-89 90 0
-90 61 0
-90 91 0
-91 59 0
-91 92 0
-92 57 0
-92 93 0
-93 55 0
-93 94 0
-94 53 0
-94 95 0
-95 51 0
-95 96 0
-96 -13 50 0
-96 -50 13 0
-97 -98 106 0
-97 98 65 0
-98 63 0
-98 99 0
-99 100 0
-99 61 0
1 -11 -65 0
1 -2 -11 0
1 0
1 2 -65 0
100 -101 -59 0
101 -102 -57 0
102 -103 -55 0
103 -104 -53 0
104 -49 -105 0
105 -52 -13 0
105 52 13 0
106 -107 -109 0
106 -109 -194 0
106 107 -194 0
107 -108 -13 0
107 108 13 0
109 -110 -133 0
109 -133 -156 0
109 110 -156 0
11 -12 -14 0
11 -14 -38 0
11 12 -38 0
110 -111 -131 0
111 -112 -129 0
112 -113 -127 0
113 -114 -125 0
114 -115 -123 0
115 -116 -121 0
116 -117 -119 0
117 -118 -23 0
117 118 23 0
119 -120 -23 0
119 120 23 0
12 -5 -13 0
12 5 13 0
121 -122 -23 0
121 122 23 0
123 -124 -23 0
123 124 23 0
125 -126 -23 0
125 126 23 0
127 -128 -23 0
127 128 23 0
129 -130 -23 0
129 130 23 0
13 0
131 -132 -23 0
131 132 23 0
133 -134 -154 0
134 -135 -152 0
135 -136 -150 0
136 -137 -148 0
137 -138 -146 0
138 -139 -144 0
139 -140 -142 0
14 -15 -36 0
140 -22 -141 0
140 22 141 0
142 -25 -143 0
142 25 143 0
144 -27 -145 0
144 27 145 0
146 -29 -147 0
146 29 147 0
148 -31 -149 0
148 31 149 0
15 -16 -34 0
150 -33 -151 0
150 33 151 0
152 -35 -153 0
152 35 153 0
154 -37 -155 0
154 37 155 0
156 -157 -190 0
157 -158 -186 0
158 -159 -182 0
159 -160 -178 0
16 -17 -32 0
160 -161 -174 0
161 -162 -170 0
162 -163 -166 0
163 -22 -164 0
163 22 164 0
164 -165 23 0
164 -23 165 0
165 -13 141 0
165 -141 13 0
166 -25 -167 0
166 25 167 0
167 -168 169 0
167 -169 168 0
168 -13 143 0
168 -143 13 0
169 -141 0
169 -23 0
17 -18 -30 0
170 -27 -171 0
170 27 171 0
171 -172 173 0
171 -173 172 0
172 -13 145 0
172 -145 13 0
173 -143 0
173 -169 0
174 -29 -175 0
174 29 175 0
175 -176 177 0
175 -177 176 0
176 -13 147 0
176 -147 13 0
177 -145 0
177 -173 0
178 -31 -179 0
178 31 179 0
179 -180 181 0
179 -181 180 0
18 -19 -28 0
180 -13 149 0
180 -149 13 0
181 -147 0
181 -177 0
182 -33 -183 0
182 33 183 0
183 -184 185 0
183 -185 184 0
184 -13 151 0
184 -151 13 0
185 -149 0
185 -181 0
186 -35 -187 0
186 35 187 0
187 -188 189 0
187 -189 188 0
188 -13 153 0
188 -153 13 0
189 -151 0
189 -185 0
19 -20 -26 0
190 -37 -191 0
190 37 191 0
191 -192 193 0
191 -193 192 0
192 -13 155 0
192 -155 13 0
193 -153 0
193 -189 0
194 -195 -197 0
194 -197 -223 0
194 195 -223 0
195 -196 -13 0
195 196 13 0
197 -198 -200 0
197 -200 -109 0
197 198 -109 0
198 -199 -13 0
198 199 13 0
2 -3 0
2 -7 0
20 -21 -24 0
200 -201 -221 0
201 -202 -219 0
202 -203 -217 0
203 -204 -215 0
204 -205 -213 0
205 -206 -211 0
206 -207 -209 0
207 -22 -208 0
207 22 208 0
209 -25 -210 0
209 25 210 0
21 -22 -23 0
21 22 23 0
211 -27 -212 0
211 27 212 0
213 -29 -214 0
213 29 214 0
215 -31 -216 0
215 31 216 0
217 -33 -218 0
217 33 218 0
219 -35 -220 0
219 35 220 0
221 -37 -222 0
221 37 222 0
223 -224 -244 0
224 -225 -242 0
225 -226 -240 0
226 -227 -238 0
227 -228 -236 0
228 -229 -234 0
229 -230 -232 0
230 -22 -231 0
230 22 231 0
232 -25 -233 0
232 25 233 0
234 -27 -235 0
234 27 235 0
236 -29 -237 0
236 29 237 0
238 -31 -239 0
238 31 239 0
24 -25 -23 0
24 25 23 0
240 -33 -241 0
240 33 241 0
242 -35 -243 0
242 35 243 0
244 -37 -245 0
244 37 245 0
26 -27 -23 0
26 27 23 0
28 -29 -23 0
28 29 23 0
3 4 0
30 -31 -23 0
30 31 23 0
32 -33 -23 0
32 33 23 0
34 -35 -23 0
34 35 23 0
36 -37 -23 0
36 37 23 0
38 -39 -41 0
38 -41 -65 0
38 39 -65 0
39 -7 -40 0
4 -5 -6 0
4 5 6 0
40 -9 -13 0
40 9 13 0
41 -42 -65 0
41 -65 -88 0
41 42 -88 0
42 -43 -63 0
43 -44 -61 0
44 -45 -59 0
45 -46 -57 0
46 -47 -55 0
47 -48 -53 0
48 -49 -51 0
49 -50 -23 0
49 50 23 0
51 -52 -23 0
51 52 23 0
53 -54 -23 0
53 54 23 0
55 -56 -23 0
55 56 23 0
57 -58 -23 0
57 58 23 0
59 -60 -23 0
59 60 23 0
61 -62 -23 0
61 62 23 0
63 -64 -23 0
63 64 23 0
65 -66 -86 0
66 -67 -84 0
67 -68 -82 0
68 -69 -80 0
69 -70 -78 0
7 8 0
70 -71 -76 0
71 -72 -74 0
72 -22 -73 0
72 22 73 0
74 -25 -75 0
74 25 75 0
76 -27 -77 0
76 27 77 0
78 -29 -79 0
78 29 79 0
8 -9 -10 0
8 9 10 0
80 -31 -81 0
80 31 81 0
82 -33 -83 0
82 33 83 0
84 -35 -85 0
84 35 85 0
86 -37 -87 0
86 37 87 0
88 -14 -97 0
88 -89 -14 0
88 89 -97 0
89 -90 -63 0
90 -91 -61 0
91 -92 -59 0
92 -93 -57 0
93 -94 -55 0
94 -95 -53 0
95 -96 -51 0
96 -50 -13 0
96 50 13 0
97 -106 -65 0
97 -98 -106 0
97 98 -65 0
98 -99 -63 0
99 -100 -61 0
